785373478292763507506,1,1,2,05,11,1,2,014,5,1,2,08,12,1,2,013,3,1,2,05,10,1,2,06,13,1,2,014,3,1,2,015,3,1,2,04,8,1,2,09,2,1,2,012,11,1,2,05,12,1,2,010,2,1,2,07,11,1,2,014,11,1,2,02,14,1,2,015,11,1,2,09,15,1,2,03,9,1,2,012,7,1,2,04,4,1,2,012,1,1,2,012,9,1,2,014,6,1,2,01,9,1,2,010,8,1,2,03,4,1,2,01,9,1,2,013,12,1,2,011,12,1,2,012,10,1,2,01,5,1,2,02,5,1,2,04,8,1,2,08,13,1,2,08,13,1,2,05,14,1,2,014,4,1,2,011,9,1,2,07,15,1,2,07,15,1,2,015,8,1,2,02,14,1,2,010,13,1,2,013,5,1,2,09,4,1,2,06,4,1,2,05,12,1,2,03,3,1,2,0